(set-logic QF_LIA)
(declare-fun x0 () Int)
(declare-fun x1 () Int)
(declare-fun x2 () Int)
(declare-fun x3 () Int)
(declare-fun x4 () Int)
(declare-fun x5 () Int)
(declare-fun x6 () Int)
(declare-fun x7 () Int)
(declare-fun x8 () Int)
(declare-fun x9 () Int)
(declare-fun A0 () Bool)
(declare-fun A1 () Bool)
(declare-fun A2 () Bool)
(declare-fun A3 () Bool)
(declare-fun A4 () Bool)
(declare-fun A5 () Bool)
(declare-fun A6 () Bool)
(declare-fun A7 () Bool)
(declare-fun A8 () Bool)
(declare-fun A9 () Bool)
(assert (let ((.def_0 (not A3))) (let ((.def_1 (or A3 .def_0))) (let ((.def_2 (not A2))) (let ((.def_3 (not A6))) (let ((.def_4 (or .def_3 .def_2))) (let ((.def_5 (and .def_4 .def_1))) (let ((.def_6 (* (- 1) x4))) (let ((.def_7 (* (- 1) x1))) (let ((.def_8 (+ .def_7 .def_6))) (let ((.def_9 (< .def_8 1))) (let ((.def_10 (not .def_9))) (let ((.def_11 (or A9 .def_10))) (let ((.def_12 (not .def_11))) (let ((.def_13 (* (- 1) x0))) (let ((.def_14 (* (- 1) x6))) (let ((.def_15 (+ .def_14 .def_13))) (let ((.def_16 (< .def_15 1))) (let ((.def_17 (not .def_16))) (let ((.def_18 (or .def_0 .def_17))) (let ((.def_19 (and .def_18 .def_12))) (let ((.def_20 (or .def_19 .def_5))) (let ((.def_21 (* (- 1) x2))) (let ((.def_22 (< .def_21 (- 1)))) (let ((.def_23 (= A7 .def_22))) (let ((.def_24 (not .def_23))) (let ((.def_25 (and .def_2 .def_2))) (let ((.def_26 (and .def_25 .def_24))) (let ((.def_27 (* 1 x0))) (let ((.def_28 (< .def_27 1))) (let ((.def_29 (and .def_2 .def_28))) (let ((.def_30 (not .def_29))) (let ((.def_31 (not .def_28))) (let ((.def_32 (* 1 x9))) (let ((.def_33 (* 1 x1))) (let ((.def_34 (+ .def_33 .def_32))) (let ((.def_35 (< .def_34 1))) (let ((.def_36 (or .def_35 .def_31))) (let ((.def_37 (not .def_36))) (let ((.def_38 (and .def_37 .def_30))) (let ((.def_39 (or .def_38 .def_26))) (let ((.def_40 (not .def_39))) (let ((.def_41 (and .def_40 .def_20))) (let ((.def_42 (not .def_41))) (let ((.def_43 (not A4))) (let ((.def_44 (* 1 x2))) (let ((.def_45 (+ .def_6 .def_44))) (let ((.def_46 (< .def_45 1))) (let ((.def_47 (not .def_46))) (let ((.def_48 (= .def_47 .def_43))) (let ((.def_49 (not .def_48))) (let ((.def_50 (not A1))) (let ((.def_51 (and A7 .def_50))) (let ((.def_52 (not .def_51))) (let ((.def_53 (and .def_52 .def_49))) (let ((.def_54 (and A7 .def_2))) (let ((.def_55 (* 1 x6))) (let ((.def_56 (+ .def_7 .def_55))) (let ((.def_57 (< .def_56 1))) (let ((.def_58 (not .def_57))) (let ((.def_59 (and A8 .def_58))) (let ((.def_60 (and .def_59 .def_54))) (let ((.def_61 (and .def_60 .def_53))) (let ((.def_62 (* 1 x5))) (let ((.def_63 (+ .def_62 .def_13))) (let ((.def_64 (< .def_63 1))) (let ((.def_65 (and .def_64 A3))) (let ((.def_66 (not .def_65))) (let ((.def_67 (* 1 x3))) (let ((.def_68 (* (- 1) x7))) (let ((.def_69 (+ .def_68 .def_67))) (let ((.def_70 (< .def_69 (- 1)))) (let ((.def_71 (not A9))) (let ((.def_72 (or .def_71 .def_70))) (let ((.def_73 (and .def_72 .def_66))) (let ((.def_74 (+ .def_67 .def_27))) (let ((.def_75 (< .def_74 (- 1)))) (let ((.def_76 (= .def_75 .def_71))) (let ((.def_77 (* (- 1) x3))) (let ((.def_78 (+ .def_21 .def_77))) (let ((.def_79 (< .def_78 1))) (let ((.def_80 (and .def_79 .def_43))) (let ((.def_81 (not .def_80))) (let ((.def_82 (or .def_81 .def_76))) (let ((.def_83 (or .def_82 .def_73))) (let ((.def_84 (not .def_83))) (let ((.def_85 (and .def_84 .def_61))) (let ((.def_86 (not .def_85))) (let ((.def_87 (= .def_86 .def_42))) (let ((.def_88 (< .def_62 1))) (let ((.def_89 (* 1 x8))) (let ((.def_90 (+ .def_89 .def_62))) (let ((.def_91 (< .def_90 (- 1)))) (let ((.def_92 (and .def_91 .def_88))) (let ((.def_93 (not .def_92))) (let ((.def_94 (< .def_32 (- 1)))) (let ((.def_95 (not A5))) (let ((.def_96 (and .def_95 .def_94))) (let ((.def_97 (not .def_96))) (let ((.def_98 (or .def_97 .def_93))) (let ((.def_99 (and .def_95 A9))) (let ((.def_100 (< .def_67 (- 1)))) (let ((.def_101 (< .def_7 1))) (let ((.def_102 (not .def_101))) (let ((.def_103 (or .def_102 .def_100))) (let ((.def_104 (or .def_103 .def_99))) (let ((.def_105 (and .def_104 .def_98))) (let ((.def_106 (not .def_105))) (let ((.def_107 (or A7 A5))) (let ((.def_108 (not .def_107))) (let ((.def_109 (= A4 A5))) (let ((.def_110 (not .def_109))) (let ((.def_111 (and .def_110 .def_108))) (let ((.def_112 (not .def_111))) (let ((.def_113 (or A9 A0))) (let ((.def_114 (not A7))) (let ((.def_115 (or A2 .def_114))) (let ((.def_116 (not .def_115))) (let ((.def_117 (or .def_116 .def_113))) (let ((.def_118 (not .def_117))) (let ((.def_119 (and .def_118 .def_112))) (let ((.def_120 (not .def_119))) (let ((.def_121 (and .def_120 .def_106))) (let ((.def_122 (not .def_121))) (let ((.def_123 (* 1 x7))) (let ((.def_124 (< .def_123 1))) (let ((.def_125 (+ .def_14 .def_32))) (let ((.def_126 (< .def_125 (- 1)))) (let ((.def_127 (not .def_126))) (let ((.def_128 (and .def_127 .def_124))) (let ((.def_129 (+ .def_13 .def_32))) (let ((.def_130 (< .def_129 (- 1)))) (let ((.def_131 (not .def_130))) (let ((.def_132 (or .def_100 .def_131))) (let ((.def_133 (not .def_132))) (let ((.def_134 (or .def_133 .def_128))) (let ((.def_135 (and A7 .def_3))) (let ((.def_136 (not .def_135))) (let ((.def_137 (* 1 x4))) (let ((.def_138 (+ .def_33 .def_137))) (let ((.def_139 (< .def_138 (- 1)))) (let ((.def_140 (not .def_139))) (let ((.def_141 (+ .def_67 .def_33))) (let ((.def_142 (< .def_141 (- 1)))) (let ((.def_143 (or .def_142 .def_140))) (let ((.def_144 (not .def_143))) (let ((.def_145 (and .def_144 .def_136))) (let ((.def_146 (not .def_145))) (let ((.def_147 (or .def_146 .def_134))) (let ((.def_148 (not .def_147))) (let ((.def_149 (+ .def_62 .def_89))) (let ((.def_150 (< .def_149 (- 1)))) (let ((.def_151 (not A8))) (let ((.def_152 (or .def_151 .def_150))) (let ((.def_153 (or .def_114 A0))) (let ((.def_154 (not .def_153))) (let ((.def_155 (or .def_154 .def_152))) (let ((.def_156 (< .def_89 (- 1)))) (let ((.def_157 (not .def_156))) (let ((.def_158 (+ .def_68 .def_77))) (let ((.def_159 (< .def_158 (- 1)))) (let ((.def_160 (and .def_159 .def_157))) (let ((.def_161 (= .def_88 A2))) (let ((.def_162 (not .def_161))) (let ((.def_163 (or .def_162 .def_160))) (let ((.def_164 (not .def_163))) (let ((.def_165 (and .def_164 .def_155))) (let ((.def_166 (not .def_165))) (let ((.def_167 (or .def_166 .def_148))) (let ((.def_168 (and .def_167 .def_122))) (let ((.def_169 (not .def_168))) (let ((.def_170 (and .def_169 .def_87))) (let ((.def_171 (not .def_170))) (let ((.def_172 (< .def_123 (- 1)))) (let ((.def_173 (not .def_172))) (let ((.def_174 (or A5 .def_173))) (let ((.def_175 (and A0 .def_173))) (let ((.def_176 (not .def_175))) (let ((.def_177 (and .def_176 .def_174))) (let ((.def_178 (not .def_177))) (let ((.def_179 (< .def_14 (- 1)))) (let ((.def_180 (or A2 .def_179))) (let ((.def_181 (and A4 .def_95))) (let ((.def_182 (and .def_181 .def_180))) (let ((.def_183 (not .def_182))) (let ((.def_184 (and .def_183 .def_178))) (let ((.def_185 (not .def_184))) (let ((.def_186 (and .def_3 A0))) (let ((.def_187 (not .def_186))) (let ((.def_188 (+ .def_62 .def_123))) (let ((.def_189 (< .def_188 (- 1)))) (let ((.def_190 (not .def_189))) (let ((.def_191 (and .def_190 A0))) (let ((.def_192 (and .def_191 .def_187))) (let ((.def_193 (* (- 1) x5))) (let ((.def_194 (+ .def_193 .def_137))) (let ((.def_195 (< .def_194 1))) (let ((.def_196 (or A9 .def_195))) (let ((.def_197 (and A6 A2))) (let ((.def_198 (and .def_197 .def_196))) (let ((.def_199 (= .def_198 .def_192))) (let ((.def_200 (not .def_199))) (let ((.def_201 (or .def_200 .def_185))) (let ((.def_202 (< .def_68 (- 1)))) (let ((.def_203 (or A6 .def_202))) (let ((.def_204 (not .def_203))) (let ((.def_205 (+ .def_6 .def_67))) (let ((.def_206 (< .def_205 (- 1)))) (let ((.def_207 (not .def_206))) (let ((.def_208 (and .def_207 .def_0))) (let ((.def_209 (or .def_208 .def_204))) (let ((.def_210 (+ .def_27 .def_62))) (let ((.def_211 (< .def_210 (- 1)))) (let ((.def_212 (or .def_211 .def_2))) (let ((.def_213 (or A5 .def_43))) (let ((.def_214 (not .def_213))) (let ((.def_215 (or .def_214 .def_212))) (let ((.def_216 (and .def_215 .def_209))) (let ((.def_217 (and .def_50 .def_50))) (let ((.def_218 (not .def_217))) (let ((.def_219 (+ .def_68 .def_21))) (let ((.def_220 (< .def_219 1))) (let ((.def_221 (not .def_220))) (let ((.def_222 (< .def_34 (- 1)))) (let ((.def_223 (and .def_222 .def_221))) (let ((.def_224 (not .def_223))) (let ((.def_225 (or .def_224 .def_218))) (let ((.def_226 (not .def_225))) (let ((.def_227 (< .def_14 1))) (let ((.def_228 (not .def_227))) (let ((.def_229 (or .def_228 .def_227))) (let ((.def_230 (< .def_193 (- 1)))) (let ((.def_231 (< .def_27 (- 1)))) (let ((.def_232 (and .def_231 .def_230))) (let ((.def_233 (not .def_232))) (let ((.def_234 (or .def_233 .def_229))) (let ((.def_235 (not .def_234))) (let ((.def_236 (or .def_235 .def_226))) (let ((.def_237 (not .def_236))) (let ((.def_238 (or .def_237 .def_216))) (let ((.def_239 (or .def_238 .def_201))) (let ((.def_240 (not .def_239))) (let ((.def_241 (+ .def_55 .def_67))) (let ((.def_242 (< .def_241 1))) (let ((.def_243 (or A2 .def_242))) (let ((.def_244 (* (- 1) x8))) (let ((.def_245 (< .def_244 (- 1)))) (let ((.def_246 (or A1 .def_245))) (let ((.def_247 (not .def_246))) (let ((.def_248 (and .def_247 .def_243))) (let ((.def_249 (= .def_71 .def_71))) (let ((.def_250 (= .def_22 A6))) (let ((.def_251 (not .def_250))) (let ((.def_252 (or .def_251 .def_249))) (let ((.def_253 (not .def_252))) (let ((.def_254 (or .def_253 .def_248))) (let ((.def_255 (+ .def_44 .def_32))) (let ((.def_256 (< .def_255 (- 1)))) (let ((.def_257 (not .def_256))) (let ((.def_258 (or .def_0 .def_257))) (let ((.def_259 (< .def_55 1))) (let ((.def_260 (< .def_77 1))) (let ((.def_261 (or .def_260 .def_259))) (let ((.def_262 (= .def_261 .def_258))) (let ((.def_263 (not .def_262))) (let ((.def_264 (not .def_231))) (let ((.def_265 (and .def_264 A8))) (let ((.def_266 (not .def_265))) (let ((.def_267 (< .def_33 1))) (let ((.def_268 (not .def_267))) (let ((.def_269 (< .def_6 (- 1)))) (let ((.def_270 (not .def_269))) (let ((.def_271 (= .def_270 .def_268))) (let ((.def_272 (not .def_271))) (let ((.def_273 (= .def_272 .def_266))) (let ((.def_274 (not .def_273))) (let ((.def_275 (and .def_274 .def_263))) (let ((.def_276 (not .def_275))) (let ((.def_277 (and .def_276 .def_254))) (let ((.def_278 (not .def_277))) (let ((.def_279 (= .def_172 A3))) (let ((.def_280 (or A8 A3))) (let ((.def_281 (and .def_280 .def_279))) (let ((.def_282 (not .def_281))) (let ((.def_283 (= .def_151 .def_50))) (let ((.def_284 (not .def_283))) (let ((.def_285 (+ .def_68 .def_7))) (let ((.def_286 (< .def_285 (- 1)))) (let ((.def_287 (* (- 1) x9))) (let ((.def_288 (+ .def_287 .def_7))) (let ((.def_289 (< .def_288 1))) (let ((.def_290 (and .def_289 .def_286))) (let ((.def_291 (not .def_290))) (let ((.def_292 (= .def_291 .def_284))) (let ((.def_293 (not .def_292))) (let ((.def_294 (and .def_293 .def_282))) (let ((.def_295 (or A4 A8))) (let ((.def_296 (or A3 A3))) (let ((.def_297 (not .def_296))) (let ((.def_298 (and .def_297 .def_295))) (let ((.def_299 (not .def_298))) (let ((.def_300 (or .def_0 .def_95))) (let ((.def_301 (+ .def_6 .def_287))) (let ((.def_302 (< .def_301 1))) (let ((.def_303 (and .def_302 A7))) (let ((.def_304 (or .def_303 .def_300))) (let ((.def_305 (or .def_304 .def_299))) (let ((.def_306 (not .def_305))) (let ((.def_307 (and .def_306 .def_294))) (let ((.def_308 (or .def_307 .def_278))) (let ((.def_309 (not .def_308))) (let ((.def_310 (and .def_309 .def_240))) (let ((.def_311 (not .def_310))) (let ((.def_312 (or .def_311 .def_171))) (let ((.def_313 (<= x9 1))) (let ((.def_314 (<= 0 x9))) (let ((.def_315 (<= x8 1))) (let ((.def_316 (<= 0 x8))) (let ((.def_317 (<= x7 1))) (let ((.def_318 (<= 0 x7))) (let ((.def_319 (<= x6 1))) (let ((.def_320 (<= 0 x6))) (let ((.def_321 (<= x5 1))) (let ((.def_322 (<= 0 x5))) (let ((.def_323 (<= x4 1))) (let ((.def_324 (<= 0 x4))) (let ((.def_325 (<= x3 1))) (let ((.def_326 (<= 0 x3))) (let ((.def_327 (<= x2 1))) (let ((.def_328 (<= 0 x2))) (let ((.def_329 (<= x1 1))) (let ((.def_330 (<= 0 x1))) (let ((.def_331 (<= x0 1))) (let ((.def_332 (<= 0 x0))) (let ((.def_333 (and .def_332 .def_331 .def_330 .def_329 .def_328 .def_327 .def_326 .def_325 .def_324 .def_323 .def_322 .def_321 .def_320 .def_319 .def_318 .def_317 .def_316 .def_315 .def_314 .def_313 .def_312))) .def_333)))))))))))))))))))))))))))))))))))))))))))))))))))))))))))))))))))))))))))))))))))))))))))))))))))))))))))))))))))))))))))))))))))))))))))))))))))))))))))))))))))))))))))))))))))))))))))))))))))))))))))))))))))))))))))))))))))))))))))))))))))))))))))))))))))))))))))))))))))))))))))))))))))))))))))))))))))))))))))))))))))))))))))))))
(check-sat)
